NAME:11675
COMMENT: From "On the generation of Metric TSP instances with a large integrality gap by branch-and-cut" (Vercesi, Gualandi, Mastrolilli, Gambardella) - https://arxiv.org/abs/2109.02454
TYPE: TSP
DIMENSION: 11
EDGE_WEIGHT_TYPE: EXPLICIT
EDGE_WEIGHT_FORMAT: UPPER_ROW
EDGE_WEIGHT_SECTION
192 116 155 192 230 231 77 154 77 154 78 39 154 269 115 115 192 269 116 39 77 192 193 193 269 192 38 116 231 154 154 231 231 77 115 269 269 192 115 39 154 307 77 153 154 154 77 307 231 231 154 231 230 231 154 
EOF